NAME : sim51.78620.tour
COMMENT : Length = 78620
COMMENT : Found by LKH [Keld Helsgaun] Wed Aug 29 08:48:30 2018
TYPE : TOUR
DIMENSION : 51
TOUR_SECTION
1
7
18
22
46
50
16
39
32
11
17
44
23
37
9
3
38
29
10
42
34
30
40
35
25
47
26
45
15
33
14
41
48
12
51
43
19
31
20
36
13
2
8
49
21
4
27
5
6
24
28
-1
EOF
